[TITLE]

[JUNCTIONS]
;ID                      Elevation       Demand Pattern                 
 J00                             4.79    11.447369185 diurnal                    ;
 J01                             5.65    12.409473391 diurnal                    ;
 J02                             9.15    9.3714327462 diurnal                    ;
 J03                            11.24    8.1384164669 diurnal                    ;
 J04                            12.74    13.637056218 diurnal                    ;
 J05                            14.56    10.206243705 diurnal                    ;
 J06                            26.09    9.1807549758 diurnal                    ;
 J07                            28.51    10.793263061 diurnal                    ;
 J10                             5.79    13.813844403 diurnal                    ;
 J11                             8.38     11.42873767 diurnal                    ;
 J12                             8.92    8.8292870535 diurnal                    ;
 J13                            10.89    12.355599104 diurnal                    ;
 J14                            14.03    8.3496315656 diurnal                    ;
 J15                            17.03    11.339393694 diurnal                    ;
 J16                            27.43    11.598475116 diurnal                    ;
 J17                             29.1    10.743696492 diurnal                    ;
 J20                             5.78    7.5290544224 diurnal                    ;
 J21                                8    11.875020032 diurnal                    ;
 J22                             9.81    9.8146301326 diurnal                    ;
 J23                            12.31    13.866072198 diurnal                    ;
 J24                            15.96    9.9601803558 diurnal                    ;
 J25                            18.09    11.642065809 diurnal                    ;
 J26                            29.08    11.666228925 diurnal                    ;
 J27                            30.88    8.1256313383 diurnal                    ;
 J30                             8.34    8.8373164323 diurnal                    ;
 J31                               10      8.06407883 diurnal                    ;
 J32                            11.78    6.4701244087 diurnal                    ;
 J33                             13.5    9.1037406345 diurnal                    ;
 J34                            16.16    12.118362486 diurnal                    ;
 J35                            18.78    13.110866701 diurnal                    ;
 J36                            30.08    11.442377195 diurnal                    ;
 J37                             31.3     11.90346338 diurnal                    ;
 J40                             8.28    8.4812840398 diurnal                    ;
 J41                            10.19    8.2817039807 diurnal                    ;
 J42                            12.63    11.265388788 diurnal                    ;
 J43                               15    11.234861179 diurnal                    ;
 J44                            17.92    12.471211456 diurnal                    ;
 J45                            20.49     7.933948504 diurnal                    ;
 J46                            31.81    13.637512494 diurnal                    ;
 J47                            32.49    11.214158385 diurnal                    ;
 J50                            10.86    7.1731869642 diurnal                    ;
 J51                            11.56    9.0724638701 diurnal                    ;
 J52                            14.68    10.823263238 diurnal                    ;
 J53                            16.35     10.61109464 diurnal                    ;
 J54                            18.28    9.6410230206 diurnal                    ;
 J55                            21.75    7.3622019372 diurnal                    ;
 J56                             32.3    10.555479872 diurnal                    ;
 J57                             34.9    9.6153602646 diurnal                    ;
 PLANT_OUT                          2               0                            ;

[RESERVOIRS]
;ID                                   Head                  Pattern
 PLANT                             12                            ;

[TANKS]
;ID                              Elevation           Init Level            Min Level            Max Level             Diameter           Min Volume Volume Curve         Overflow            
 TANK1                             48               3             0.5               6              28               0                                             ;

[PIPES]
;ID                   Node1                Node2                              Length             Diameter            Roughness           Minor Loss               Status
 P01                  PLANT_OUT            J20                              600             450             110               0                 Open   ;
 P02                  PLANT_OUT            J30                              600             450             110               0                 Open   ;
 P03                  TANK1                J03                              400             350             110               0                 Open   ;
 P04                  J00                  J01                              500             200             110               0                 Open   ;
 P05                  J01                  J02                              500             200             110               0                 Open   ;
 P06                  J02                  J03                              500             200             110               0                 Open   ;
 P07                  J03                  J04                              500             200             110               0                 Open   ;
 P08                  J04                  J05                              500             200             110               0                 Open   ;
 P09                  J05                  J06                              500             200             110               0                 Open   ;
 P10                  J06                  J07                              500             200             110               0                 Open   ;
 P11                  J10                  J11                              500             200             110               0                 Open   ;
 P12                  J11                  J12                              500             200             110               0                 Open   ;
 P13                  J12                  J13                              500             200             110               0                 Open   ;
 P14                  J13                  J14                              500             200             110               0                 Open   ;
 P15                  J14                  J15                              500             200             110               0                 Open   ;
 P16                  J15                  J16                              500             200             110               0                 Open   ;
 P17                  J16                  J17                              500             200             110               0                 Open   ;
 P18                  J20                  J21                              500             350             110               0                 Open   ;
 P19                  J21                  J22                              500             350             110               0                 Open   ;
 P20                  J22                  J23                              500             350             110               0                 Open   ;
 P21                  J23                  J24                              500             350             110               0                 Open   ;
 P22                  J24                  J25                              500             350             110               0                 Open   ;
 P23                  J25                  J26                              500             350             110               0                 Open   ;
 P24                  J26                  J27                              500             350             110               0                 Open   ;
 P25                  J30                  J31                              500             350             110               0                 Open   ;
 P26                  J31                  J32                              500             350             110               0                 Open   ;
 P27                  J32                  J33                              500             350             110               0                 Open   ;
 P28                  J33                  J34                              500             350             110               0                 Open   ;
 P29                  J34                  J35                              500             350             110               0                 Open   ;
 P30                  J35                  J36                              500             350             110               0                 Open   ;
 P31                  J36                  J37                              500             350             110               0                 Open   ;
 P32                  J40                  J41                              500             200             110               0                 Open   ;
 P33                  J41                  J42                              500             200             110               0                 Open   ;
 P34                  J42                  J43                              500             200             110               0                 Open   ;
 P35                  J43                  J44                              500             200             110               0                 Open   ;
 P36                  J44                  J45                              500             200             110               0                 Open   ;
 P37                  J45                  J46                              500             200             110               0                 Open   ;
 P38                  J46                  J47                              500             200             110               0                 Open   ;
 P39                  J50                  J51                              500             200             110               0                 Open   ;
 P40                  J51                  J52                              500             200             110               0                 Open   ;
 P41                  J52                  J53                              500             200             110               0                 Open   ;
 P42                  J53                  J54                              500             200             110               0                 Open   ;
 P43                  J54                  J55                              500             200             110               0                 Open   ;
 P44                  J55                  J56                              500             200             110               0                 Open   ;
 P45                  J56                  J57                              500             200             110               0                 Open   ;
 P46                  J00                  J10                              500             300             110               0                 Open   ;
 P47                  J01                  J11                              500             150             110               0                 Open   ;
 P48                  J02                  J12                              500             150             110               0                 Open   ;
 P49                  J03                  J13                              500             300             110               0                 Open   ;
 P50                  J04                  J14                              500             150             110               0                 Open   ;
 P51                  J05                  J15                              500             150             110               0                 Open   ;
 P52                  J06                  J16                              500             150             110               0                 Open   ;
 P53                  J07                  J17                              500             150             110               0                 Open   ;
 P54                  J10                  J20                              500             300             110               0                 Open   ;
 P55                  J11                  J21                              500             150             110               0                 Open   ;
 P56                  J12                  J22                              500             150             110               0                 Open   ;
 P57                  J13                  J23                              500             300             110               0                 Open   ;
 P58                  J14                  J24                              500             150             110               0                 Open   ;
 P59                  J15                  J25                              500             150             110               0                 Open   ;
 P60                  J16                  J26                              500             150             110               0                 Open   ;
 P61                  J17                  J27                              500             150             110               0                 Open   ;
 P62                  J20                  J30                              500             300             110               0                 Open   ;
 P63                  J21                  J31                              500             150             110               0                 Open   ;
 P64                  J22                  J32                              500             150             110               0                 Open   ;
 P65                  J23                  J33                              500             300             110               0                 Open   ;
 P66                  J24                  J34                              500             150             110               0                 Open   ;
 P67                  J25                  J35                              500             150             110               0                 Open   ;
 P68                  J26                  J36                              500             150             110               0                 Open   ;
 P69                  J27                  J37                              500             150             110               0                 Open   ;
 P70                  J30                  J40                              500             300             110               0                 Open   ;
 P71                  J31                  J41                              500             150             110               0                 Open   ;
 P72                  J32                  J42                              500             150             110               0                 Open   ;
 P73                  J33                  J43                              500             300             110               0                 Open   ;
 P74                  J34                  J44                              500             150             110               0                 Open   ;
 P75                  J35                  J45                              500             150             110               0                 Open   ;
 P76                  J36                  J46                              500             150             110               0                 Open   ;
 P77                  J37                  J47                              500             150             110               0                 Open   ;
 P78                  J40                  J50                              500             300             110               0                 Open   ;
 P79                  J41                  J51                              500             150             110               0                 Open   ;
 P80                  J42                  J52                              500             150             110               0                 Open   ;
 P81                  J43                  J53                              500             300             110               0                 Open   ;
 P82                  J44                  J54                              500             150             110               0                 Open   ;
 P83                  J45                  J55                              500             150             110               0                 Open   ;
 P84                  J46                  J56                              500             150             110               0                 Open   ;
 P85                  J47                  J57                              500             150             110               0                 Open   ;

[PUMPS]
;ID                   Node1                Node2                Properties          
 PUMP1                PLANT                PLANT_OUT            HEAD     PUMP_CURVE             ;

[VALVES]
;ID                   Node1                Node2                            Diameter Type              Setting           Minor Loss

[TAGS]
;type      name       tag       

[DEMANDS]
;ID        Demand     Pattern   

[STATUS]
;ID        Setting   

[PATTERNS]
;ID        Multipliers

diurnal 0.447000 0.397400 0.377500 0.377500 0.447000 0.745000
diurnal 1.291400 1.738400 1.688700 1.390700 1.142400 1.043000
diurnal 0.993400 0.943700 0.894000 0.943700 1.092700 1.341100
diurnal 1.589400 1.539700 1.291400 0.993400 0.745000 0.546400

[CURVES]
;ID         X-Value      Y-Value     
;PUMP: PUMP_CURVE
 PUMP_CURVE   576.000000    47.000000   ;


[CONTROLS]

[RULES]

[ENERGY]
GLOBAL PRICE           0.0000

[EMITTERS]
;ID        Flow coefficient
J00        0.19349585543945194
J01        0.2097583847133249
J02        0.15840612516692779
J03        0.13756434607490362
J04        0.23050832169542912
J05        0.17251700583754445
J06        0.15518308258871547
J07        0.1824394439736705
J10        0.2334965874342205
J11        0.19318092535239498
J12        0.1492421903904128
J13        0.20884774304504766
J14        0.14113453286092692
J15        0.19167073653708447
J16        0.19605001184979287
J17        0.18160161604248992
J20        0.12726424758428104
J21        0.20072447409318422
J22        0.1658975283022459
J23        0.23437939828513346
J24        0.16835777611079786
J25        0.19678682905070327
J26        0.19719526025865064
J27        0.13734823795762138
J30        0.14937791166324976
J31        0.13630781067251108
J32        0.10936506345229588
J33        0.15388130262454247
J34        0.20483771231280756
J35        0.22161409551110475
J36        0.1934114754091151
J37        0.20120525443528117
J40        0.14335986583578328
J41        0.1399863471143883
J42        0.1904198253060166
J43        0.1899038145329833
J44        0.21080194847481878
J45        0.1341082066992829
J46        0.2305160341677323
J47        0.1895538734537588
J50        0.12124898965487688
J51        0.15335262881364323
J52        0.18294653951096884
J53        0.1793602356515791
J54        0.16296303251574204
J55        0.12444392582768585
J56        0.1784201744985526
J57        0.162529252766687

[QUALITY]

[SOURCES]
;Node      Type       Quality    Pattern   

[REACTIONS]
;Type           Pipe/Tank               Coefficient

 ORDER BULK 1
 ORDER TANK 1
 ORDER WALL 1
 GLOBAL BULK 0.0000    
 GLOBAL WALL 0.0000    

[MIXING]
;Tank ID             Model Fraction

[TIMES]
DURATION             24:00:00
HYDRAULIC TIMESTEP   01:00:00
QUALITY TIMESTEP     00:06:00
PATTERN TIMESTEP     01:00:00
PATTERN START        00:00:00
REPORT TIMESTEP      01:00:00
REPORT START         00:00:00
START CLOCKTIME      00:00:00 AM
RULE TIMESTEP        00:06:00
STATISTIC            NONE      

[REPORT]

[OPTIONS]
UNITS                CMH                 
HEADLOSS             H-W                 
SPECIFIC GRAVITY     1
VISCOSITY            1
TRIALS               200
ACCURACY             0.001
CHECKFREQ            2
MAXCHECK             10
UNBALANCED           STOP                
PATTERN              1                   
DEMAND MULTIPLIER    1
DEMAND MODEL         PDA
MINIMUM PRESSURE     3.00
REQUIRED PRESSURE    20.00
PRESSURE EXPONENT    0.5
EMITTER EXPONENT     0.5
QUALITY              NONE                
DIFFUSIVITY          1
TOLERANCE            0.01

[COORDINATES]
;Node      X-Coord    Y-Coord   
J00                 0.000000000       2500.000000000
J01               500.000000000       2500.000000000
J02              1000.000000000       2500.000000000
J03              1500.000000000       2500.000000000
J04              2000.000000000       2500.000000000
J05              2500.000000000       2500.000000000
J06              3000.000000000       2500.000000000
J07              3500.000000000       2500.000000000
J10                 0.000000000       2000.000000000
J11               500.000000000       2000.000000000
J12              1000.000000000       2000.000000000
J13              1500.000000000       2000.000000000
J14              2000.000000000       2000.000000000
J15              2500.000000000       2000.000000000
J16              3000.000000000       2000.000000000
J17              3500.000000000       2000.000000000
J20                 0.000000000       1500.000000000
J21               500.000000000       1500.000000000
J22              1000.000000000       1500.000000000
J23              1500.000000000       1500.000000000
J24              2000.000000000       1500.000000000
J25              2500.000000000       1500.000000000
J26              3000.000000000       1500.000000000
J27              3500.000000000       1500.000000000
J30                 0.000000000       1000.000000000
J31               500.000000000       1000.000000000
J32              1000.000000000       1000.000000000
J33              1500.000000000       1000.000000000
J34              2000.000000000       1000.000000000
J35              2500.000000000       1000.000000000
J36              3000.000000000       1000.000000000
J37              3500.000000000       1000.000000000
J40                 0.000000000        500.000000000
J41               500.000000000        500.000000000
J42              1000.000000000        500.000000000
J43              1500.000000000        500.000000000
J44              2000.000000000        500.000000000
J45              2500.000000000        500.000000000
J46              3000.000000000        500.000000000
J47              3500.000000000        500.000000000
J50                 0.000000000          0.000000000
J51               500.000000000          0.000000000
J52              1000.000000000          0.000000000
J53              1500.000000000          0.000000000
J54              2000.000000000          0.000000000
J55              2500.000000000          0.000000000
J56              3000.000000000          0.000000000
J57              3500.000000000          0.000000000
PLANT            -800.000000000       1250.000000000
PLANT_OUT        -500.000000000       1250.000000000
TANK1            1750.000000000       3300.000000000

[VERTICES]
;Link      X-Coord    Y-Coord   

[LABELS]

[BACKDROP]
UNITS    NONE

[END]
